c Reduced graph for r15 generated by Cyril Grelier
p edge 198 2055
e 1 21
e 1 24
e 1 28
e 1 37
e 1 54
e 1 58
e 1 70
e 1 75
e 1 84
e 1 88
e 1 94
e 1 111
e 1 115
e 1 116
e 1 121
e 1 133
e 1 155
e 1 168
e 1 176
e 1 186
e 1 192
e 2 6
e 2 17
e 2 35
e 2 36
e 2 66
e 2 67
e 2 76
e 2 80
e 2 83
e 2 86
e 2 101
e 2 120
e 2 126
e 2 135
e 2 136
e 2 154
e 2 162
e 2 169
e 2 172
e 2 182
e 2 193
e 2 194
e 3 14
e 3 65
e 3 72
e 3 74
e 3 84
e 3 95
e 3 102
e 3 109
e 3 118
e 3 128
e 3 132
e 3 142
e 3 147
e 3 154
e 3 158
e 3 160
e 3 186
e 3 187
e 3 190
e 4 6
e 4 18
e 4 20
e 4 29
e 4 32
e 4 39
e 4 43
e 4 50
e 4 64
e 4 77
e 4 81
e 4 82
e 4 110
e 4 122
e 4 133
e 4 157
e 4 164
e 4 173
e 4 180
e 4 183
e 4 187
e 4 189
e 4 198
e 5 7
e 5 12
e 5 17
e 5 20
e 5 21
e 5 30
e 5 31
e 5 47
e 5 48
e 5 50
e 5 58
e 5 60
e 5 63
e 5 73
e 5 78
e 5 96
e 5 107
e 5 113
e 5 120
e 5 123
e 5 137
e 5 140
e 5 152
e 5 159
e 5 197
e 6 17
e 6 18
e 6 29
e 6 36
e 6 39
e 6 50
e 6 67
e 6 76
e 6 80
e 6 81
e 6 82
e 6 110
e 6 126
e 6 133
e 6 136
e 6 154
e 6 157
e 6 162
e 6 173
e 6 182
e 6 183
e 6 193
e 6 194
e 7 12
e 7 21
e 7 30
e 7 48
e 7 50
e 7 52
e 7 57
e 7 64
e 7 71
e 7 73
e 7 78
e 7 96
e 7 106
e 7 107
e 7 113
e 7 120
e 7 123
e 7 146
e 7 159
e 7 195
e 7 197
e 8 13
e 8 26
e 8 30
e 8 42
e 8 65
e 8 68
e 8 74
e 8 76
e 8 77
e 8 99
e 8 106
e 8 114
e 8 125
e 8 129
e 8 137
e 8 138
e 8 156
e 8 171
e 8 175
e 8 183
e 9 23
e 9 34
e 9 42
e 9 51
e 9 52
e 9 54
e 9 72
e 9 73
e 9 80
e 9 104
e 9 119
e 9 139
e 9 145
e 9 151
e 9 165
e 9 167
e 9 174
e 9 185
e 9 191
e 10 27
e 10 39
e 10 51
e 10 55
e 10 56
e 10 57
e 10 68
e 10 83
e 10 103
e 10 107
e 10 112
e 10 116
e 10 119
e 10 153
e 10 158
e 10 181
e 10 193
e 10 198
e 11 19
e 11 27
e 11 28
e 11 43
e 11 49
e 11 59
e 11 60
e 11 67
e 11 89
e 11 91
e 11 95
e 11 97
e 11 111
e 11 114
e 11 123
e 11 131
e 11 146
e 11 160
e 11 163
e 11 165
e 11 172
e 11 177
e 12 15
e 12 21
e 12 24
e 12 30
e 12 36
e 12 48
e 12 50
e 12 53
e 12 56
e 12 73
e 12 78
e 12 90
e 12 96
e 12 107
e 12 108
e 12 113
e 12 120
e 12 123
e 12 131
e 12 144
e 12 159
e 12 189
e 12 197
e 13 16
e 13 18
e 13 26
e 13 30
e 13 31
e 13 38
e 13 40
e 13 44
e 13 49
e 13 74
e 13 76
e 13 77
e 13 94
e 13 114
e 13 130
e 13 135
e 13 138
e 13 144
e 13 156
e 13 171
e 13 175
e 14 22
e 14 33
e 14 45
e 14 63
e 14 65
e 14 72
e 14 84
e 14 87
e 14 89
e 14 98
e 14 109
e 14 118
e 14 121
e 14 132
e 14 147
e 14 154
e 14 156
e 14 160
e 14 166
e 14 187
e 14 191
e 14 195
e 15 24
e 15 36
e 15 53
e 15 56
e 15 69
e 15 75
e 15 79
e 15 86
e 15 90
e 15 108
e 15 110
e 15 127
e 15 131
e 15 132
e 15 144
e 15 145
e 15 175
e 15 189
e 16 18
e 16 31
e 16 38
e 16 40
e 16 44
e 16 49
e 16 92
e 16 94
e 16 97
e 16 98
e 16 103
e 16 113
e 16 122
e 16 130
e 16 135
e 16 144
e 16 149
e 16 155
e 16 179
e 16 182
e 16 188
e 16 190
e 17 20
e 17 31
e 17 36
e 17 47
e 17 58
e 17 60
e 17 63
e 17 67
e 17 76
e 17 80
e 17 126
e 17 136
e 17 137
e 17 140
e 17 152
e 17 154
e 17 162
e 17 182
e 17 193
e 17 194
e 18 29
e 18 31
e 18 38
e 18 39
e 18 40
e 18 44
e 18 49
e 18 50
e 18 81
e 18 82
e 18 94
e 18 110
e 18 130
e 18 133
e 18 135
e 18 144
e 18 157
e 18 173
e 18 183
e 19 26
e 19 27
e 19 28
e 19 43
e 19 49
e 19 62
e 19 66
e 19 67
e 19 71
e 19 89
e 19 95
e 19 108
e 19 112
e 19 115
e 19 118
e 19 123
e 19 124
e 19 163
e 19 178
e 19 188
e 20 31
e 20 32
e 20 43
e 20 47
e 20 58
e 20 60
e 20 63
e 20 64
e 20 77
e 20 122
e 20 137
e 20 140
e 20 152
e 20 164
e 20 180
e 20 187
e 20 189
e 20 198
e 21 30
e 21 48
e 21 50
e 21 70
e 21 73
e 21 75
e 21 78
e 21 94
e 21 96
e 21 107
e 21 111
e 21 113
e 21 115
e 21 120
e 21 121
e 21 123
e 21 159
e 21 176
e 21 186
e 21 197
e 22 25
e 22 33
e 22 44
e 22 45
e 22 63
e 22 79
e 22 85
e 22 87
e 22 89
e 22 98
e 22 121
e 22 142
e 22 156
e 22 166
e 22 177
e 22 191
e 22 195
e 22 197
e 23 41
e 23 45
e 23 52
e 23 72
e 23 88
e 23 104
e 23 119
e 23 127
e 23 129
e 23 141
e 23 143
e 23 151
e 23 194
e 24 28
e 24 36
e 24 37
e 24 53
e 24 54
e 24 56
e 24 58
e 24 84
e 24 88
e 24 90
e 24 108
e 24 116
e 24 131
e 24 133
e 24 144
e 24 155
e 24 168
e 24 189
e 24 192
e 25 35
e 25 41
e 25 44
e 25 79
e 25 82
e 25 85
e 25 92
e 25 100
e 25 139
e 25 140
e 25 142
e 25 148
e 25 161
e 25 177
e 25 197
e 26 30
e 26 62
e 26 66
e 26 71
e 26 74
e 26 76
e 26 77
e 26 108
e 26 112
e 26 114
e 26 115
e 26 118
e 26 124
e 26 138
e 26 156
e 26 171
e 26 175
e 26 178
e 26 188
e 27 28
e 27 39
e 27 43
e 27 49
e 27 51
e 27 55
e 27 56
e 27 57
e 27 67
e 27 83
e 27 89
e 27 95
e 27 103
e 27 123
e 27 163
e 27 181
e 28 37
e 28 43
e 28 49
e 28 54
e 28 58
e 28 67
e 28 84
e 28 88
e 28 89
e 28 95
e 28 116
e 28 123
e 28 133
e 28 155
e 28 163
e 28 168
e 28 192
e 29 39
e 29 46
e 29 50
e 29 61
e 29 70
e 29 81
e 29 82
e 29 93
e 29 110
e 29 133
e 29 138
e 29 143
e 29 153
e 29 157
e 29 167
e 29 173
e 29 179
e 29 183
e 30 48
e 30 50
e 30 73
e 30 74
e 30 76
e 30 77
e 30 78
e 30 96
e 30 107
e 30 113
e 30 114
e 30 120
e 30 123
e 30 138
e 30 156
e 30 159
e 30 171
e 30 175
e 30 197
e 31 38
e 31 40
e 31 44
e 31 47
e 31 49
e 31 58
e 31 60
e 31 63
e 31 94
e 31 130
e 31 135
e 31 137
e 31 140
e 31 144
e 31 152
e 32 40
e 32 43
e 32 48
e 32 61
e 32 64
e 32 77
e 32 122
e 32 128
e 32 136
e 32 148
e 32 150
e 32 151
e 32 164
e 32 166
e 32 180
e 32 187
e 32 189
e 32 198
e 33 38
e 33 45
e 33 46
e 33 55
e 33 63
e 33 87
e 33 89
e 33 98
e 33 102
e 33 105
e 33 121
e 33 124
e 33 125
e 33 134
e 33 156
e 33 159
e 33 162
e 33 166
e 33 168
e 33 180
e 33 184
e 33 191
e 33 195
e 34 42
e 34 47
e 34 51
e 34 53
e 34 54
e 34 73
e 34 80
e 34 101
e 34 139
e 34 141
e 34 145
e 34 163
e 34 165
e 34 167
e 34 170
e 34 173
e 34 174
e 34 184
e 34 185
e 34 191
e 35 41
e 35 66
e 35 82
e 35 83
e 35 86
e 35 92
e 35 100
e 35 101
e 35 120
e 35 135
e 35 139
e 35 140
e 35 148
e 35 161
e 35 169
e 35 172
e 36 53
e 36 56
e 36 67
e 36 76
e 36 80
e 36 90
e 36 108
e 36 126
e 36 131
e 36 136
e 36 144
e 36 154
e 36 162
e 36 182
e 36 189
e 36 193
e 36 194
e 37 54
e 37 58
e 37 78
e 37 84
e 37 88
e 37 91
e 37 93
e 37 100
e 37 104
e 37 116
e 37 117
e 37 133
e 37 155
e 37 168
e 37 170
e 37 178
e 37 181
e 37 192
e 38 40
e 38 44
e 38 46
e 38 49
e 38 55
e 38 94
e 38 102
e 38 105
e 38 124
e 38 125
e 38 130
e 38 134
e 38 135
e 38 144
e 38 159
e 38 162
e 38 168
e 38 180
e 38 184
e 39 50
e 39 51
e 39 55
e 39 56
e 39 57
e 39 81
e 39 82
e 39 83
e 39 103
e 39 110
e 39 133
e 39 157
e 39 173
e 39 181
e 39 183
e 40 44
e 40 48
e 40 49
e 40 61
e 40 94
e 40 128
e 40 130
e 40 135
e 40 136
e 40 144
e 40 148
e 40 150
e 40 151
e 40 166
e 41 45
e 41 82
e 41 88
e 41 92
e 41 100
e 41 127
e 41 129
e 41 139
e 41 140
e 41 141
e 41 143
e 41 148
e 41 161
e 41 194
e 42 51
e 42 54
e 42 65
e 42 68
e 42 73
e 42 80
e 42 99
e 42 106
e 42 125
e 42 129
e 42 137
e 42 139
e 42 145
e 42 165
e 42 167
e 42 174
e 42 183
e 42 185
e 42 191
e 43 49
e 43 64
e 43 67
e 43 77
e 43 89
e 43 95
e 43 122
e 43 123
e 43 163
e 43 164
e 43 180
e 43 187
e 43 189
e 43 198
e 44 49
e 44 79
e 44 85
e 44 94
e 44 130
e 44 135
e 44 142
e 44 144
e 44 177
e 44 197
e 45 63
e 45 87
e 45 88
e 45 89
e 45 98
e 45 121
e 45 127
e 45 129
e 45 141
e 45 143
e 45 156
e 45 166
e 45 191
e 45 194
e 45 195
e 46 55
e 46 61
e 46 70
e 46 93
e 46 102
e 46 105
e 46 124
e 46 125
e 46 134
e 46 138
e 46 143
e 46 153
e 46 159
e 46 162
e 46 167
e 46 168
e 46 179
e 46 180
e 46 184
e 47 53
e 47 58
e 47 60
e 47 63
e 47 101
e 47 137
e 47 140
e 47 141
e 47 152
e 47 163
e 47 170
e 47 173
e 47 184
e 48 50
e 48 61
e 48 73
e 48 78
e 48 96
e 48 107
e 48 113
e 48 120
e 48 123
e 48 128
e 48 136
e 48 148
e 48 150
e 48 151
e 48 159
e 48 166
e 48 197
e 49 67
e 49 89
e 49 94
e 49 95
e 49 123
e 49 130
e 49 135
e 49 144
e 49 163
e 50 73
e 50 78
e 50 81
e 50 82
e 50 96
e 50 107
e 50 110
e 50 113
e 50 120
e 50 123
e 50 133
e 50 157
e 50 159
e 50 173
e 50 183
e 50 197
e 51 54
e 51 55
e 51 56
e 51 57
e 51 73
e 51 80
e 51 83
e 51 103
e 51 139
e 51 145
e 51 165
e 51 167
e 51 174
e 51 181
e 51 185
e 51 191
e 52 57
e 52 64
e 52 71
e 52 72
e 52 104
e 52 106
e 52 119
e 52 146
e 52 151
e 52 195
e 53 56
e 53 90
e 53 101
e 53 108
e 53 131
e 53 141
e 53 144
e 53 163
e 53 170
e 53 173
e 53 184
e 53 189
e 54 58
e 54 73
e 54 80
e 54 84
e 54 88
e 54 116
e 54 133
e 54 139
e 54 145
e 54 155
e 54 165
e 54 167
e 54 168
e 54 174
e 54 185
e 54 191
e 54 192
e 55 56
e 55 57
e 55 83
e 55 102
e 55 103
e 55 105
e 55 124
e 55 125
e 55 134
e 55 159
e 55 162
e 55 168
e 55 180
e 55 181
e 55 184
e 56 57
e 56 83
e 56 90
e 56 103
e 56 108
e 56 131
e 56 144
e 56 181
e 56 189
e 57 64
e 57 71
e 57 83
e 57 103
e 57 106
e 57 146
e 57 181
e 57 195
e 58 60
e 58 63
e 58 84
e 58 88
e 58 116
e 58 133
e 58 137
e 58 140
e 58 152
e 58 155
e 58 168
e 58 192
e 59 60
e 59 62
e 59 69
e 59 87
e 59 91
e 59 96
e 59 97
e 59 99
e 59 111
e 59 114
e 59 126
e 59 130
e 59 131
e 59 146
e 59 160
e 59 161
e 59 164
e 59 165
e 59 172
e 59 177
e 59 192
e 59 196
e 60 63
e 60 91
e 60 97
e 60 111
e 60 114
e 60 131
e 60 137
e 60 140
e 60 146
e 60 152
e 60 160
e 60 165
e 60 172
e 60 177
e 61 70
e 61 93
e 61 128
e 61 136
e 61 138
e 61 143
e 61 148
e 61 150
e 61 151
e 61 153
e 61 166
e 61 167
e 61 179
e 62 66
e 62 69
e 62 71
e 62 87
e 62 96
e 62 99
e 62 108
e 62 112
e 62 115
e 62 118
e 62 124
e 62 126
e 62 130
e 62 161
e 62 164
e 62 178
e 62 188
e 62 192
e 62 196
e 63 87
e 63 89
e 63 98
e 63 121
e 63 137
e 63 140
e 63 152
e 63 156
e 63 166
e 63 191
e 63 195
e 64 71
e 64 77
e 64 106
e 64 122
e 64 146
e 64 164
e 64 180
e 64 187
e 64 189
e 64 195
e 64 198
e 65 68
e 65 72
e 65 84
e 65 99
e 65 106
e 65 109
e 65 118
e 65 125
e 65 129
e 65 132
e 65 137
e 65 147
e 65 154
e 65 160
e 65 183
e 65 187
e 66 71
e 66 83
e 66 86
e 66 101
e 66 108
e 66 112
e 66 115
e 66 118
e 66 120
e 66 124
e 66 135
e 66 169
e 66 172
e 66 178
e 66 188
e 67 76
e 67 80
e 67 89
e 67 95
e 67 123
e 67 126
e 67 136
e 67 154
e 67 162
e 67 163
e 67 182
e 67 193
e 67 194
e 68 99
e 68 106
e 68 107
e 68 112
e 68 116
e 68 119
e 68 125
e 68 129
e 68 137
e 68 153
e 68 158
e 68 183
e 68 193
e 68 198
e 69 75
e 69 79
e 69 86
e 69 87
e 69 96
e 69 99
e 69 110
e 69 126
e 69 127
e 69 130
e 69 132
e 69 145
e 69 161
e 69 164
e 69 175
e 69 192
e 69 196
e 70 75
e 70 93
e 70 94
e 70 111
e 70 115
e 70 121
e 70 138
e 70 143
e 70 153
e 70 167
e 70 176
e 70 179
e 70 186
e 71 106
e 71 108
e 71 112
e 71 115
e 71 118
e 71 124
e 71 146
e 71 178
e 71 188
e 71 195
e 72 84
e 72 104
e 72 109
e 72 118
e 72 119
e 72 132
e 72 147
e 72 151
e 72 154
e 72 160
e 72 187
e 73 78
e 73 80
e 73 96
e 73 107
e 73 113
e 73 120
e 73 123
e 73 139
e 73 145
e 73 159
e 73 165
e 73 167
e 73 174
e 73 185
e 73 191
e 73 197
e 74 76
e 74 77
e 74 95
e 74 102
e 74 114
e 74 128
e 74 138
e 74 142
e 74 156
e 74 158
e 74 171
e 74 175
e 74 186
e 74 190
e 75 79
e 75 86
e 75 94
e 75 110
e 75 111
e 75 115
e 75 121
e 75 127
e 75 132
e 75 145
e 75 175
e 75 176
e 75 186
e 76 77
e 76 80
e 76 114
e 76 126
e 76 136
e 76 138
e 76 154
e 76 156
e 76 162
e 76 171
e 76 175
e 76 182
e 76 193
e 76 194
e 77 114
e 77 122
e 77 138
e 77 156
e 77 164
e 77 171
e 77 175
e 77 180
e 77 187
e 77 189
e 77 198
e 78 91
e 78 93
e 78 96
e 78 100
e 78 104
e 78 107
e 78 113
e 78 117
e 78 120
e 78 123
e 78 159
e 78 170
e 78 178
e 78 181
e 78 197
e 79 85
e 79 86
e 79 110
e 79 127
e 79 132
e 79 142
e 79 145
e 79 175
e 79 177
e 79 197
e 80 126
e 80 136
e 80 139
e 80 145
e 80 154
e 80 162
e 80 165
e 80 167
e 80 174
e 80 182
e 80 185
e 80 191
e 80 193
e 80 194
e 81 82
e 81 109
e 81 110
e 81 133
e 81 134
e 81 157
e 81 171
e 81 173
e 81 174
e 81 176
e 81 183
e 81 196
e 82 92
e 82 100
e 82 110
e 82 133
e 82 139
e 82 140
e 82 148
e 82 157
e 82 161
e 82 173
e 82 183
e 83 86
e 83 101
e 83 103
e 83 120
e 83 135
e 83 169
e 83 172
e 83 181
e 84 88
e 84 109
e 84 116
e 84 118
e 84 132
e 84 133
e 84 147
e 84 154
e 84 155
e 84 160
e 84 168
e 84 187
e 84 192
e 85 90
e 85 105
e 85 117
e 85 142
e 85 147
e 85 149
e 85 150
e 85 152
e 85 157
e 85 169
e 85 177
e 85 185
e 85 197
e 86 101
e 86 110
e 86 120
e 86 127
e 86 132
e 86 135
e 86 145
e 86 169
e 86 172
e 86 175
e 87 89
e 87 96
e 87 98
e 87 99
e 87 121
e 87 126
e 87 130
e 87 156
e 87 161
e 87 164
e 87 166
e 87 191
e 87 192
e 87 195
e 87 196
e 88 116
e 88 127
e 88 129
e 88 133
e 88 141
e 88 143
e 88 155
e 88 168
e 88 192
e 88 194
e 89 95
e 89 98
e 89 121
e 89 123
e 89 156
e 89 163
e 89 166
e 89 191
e 89 195
e 90 105
e 90 108
e 90 117
e 90 131
e 90 144
e 90 147
e 90 149
e 90 150
e 90 152
e 90 157
e 90 169
e 90 185
e 90 189
e 91 93
e 91 97
e 91 100
e 91 104
e 91 111
e 91 114
e 91 117
e 91 131
e 91 146
e 91 160
e 91 165
e 91 170
e 91 172
e 91 177
e 91 178
e 91 181
e 92 97
e 92 98
e 92 100
e 92 103
e 92 113
e 92 122
e 92 139
e 92 140
e 92 148
e 92 149
e 92 155
e 92 161
e 92 179
e 92 182
e 92 188
e 92 190
e 93 100
e 93 104
e 93 117
e 93 138
e 93 143
e 93 153
e 93 167
e 93 170
e 93 178
e 93 179
e 93 181
e 94 111
e 94 115
e 94 121
e 94 130
e 94 135
e 94 144
e 94 176
e 94 186
e 95 102
e 95 123
e 95 128
e 95 142
e 95 158
e 95 163
e 95 186
e 95 190
e 96 99
e 96 107
e 96 113
e 96 120
e 96 123
e 96 126
e 96 130
e 96 159
e 96 161
e 96 164
e 96 192
e 96 196
e 96 197
e 97 98
e 97 103
e 97 111
e 97 113
e 97 114
e 97 122
e 97 131
e 97 146
e 97 149
e 97 155
e 97 160
e 97 165
e 97 172
e 97 177
e 97 179
e 97 182
e 97 188
e 97 190
e 98 103
e 98 113
e 98 121
e 98 122
e 98 149
e 98 155
e 98 156
e 98 166
e 98 179
e 98 182
e 98 188
e 98 190
e 98 191
e 98 195
e 99 106
e 99 125
e 99 126
e 99 129
e 99 130
e 99 137
e 99 161
e 99 164
e 99 183
e 99 192
e 99 196
e 100 104
e 100 117
e 100 139
e 100 140
e 100 148
e 100 161
e 100 170
e 100 178
e 100 181
e 101 120
e 101 135
e 101 141
e 101 163
e 101 169
e 101 170
e 101 172
e 101 173
e 101 184
e 102 105
e 102 124
e 102 125
e 102 128
e 102 134
e 102 142
e 102 158
e 102 159
e 102 162
e 102 168
e 102 180
e 102 184
e 102 186
e 102 190
e 103 113
e 103 122
e 103 149
e 103 155
e 103 179
e 103 181
e 103 182
e 103 188
e 103 190
e 104 117
e 104 119
e 104 151
e 104 170
e 104 178
e 104 181
e 105 117
e 105 124
e 105 125
e 105 134
e 105 147
e 105 149
e 105 150
e 105 152
e 105 157
e 105 159
e 105 162
e 105 168
e 105 169
e 105 180
e 105 184
e 105 185
e 106 125
e 106 129
e 106 137
e 106 146
e 106 183
e 106 195
e 107 112
e 107 113
e 107 116
e 107 119
e 107 120
e 107 123
e 107 153
e 107 158
e 107 159
e 107 193
e 107 197
e 107 198
e 108 112
e 108 115
e 108 118
e 108 124
e 108 131
e 108 144
e 108 178
e 108 188
e 108 189
e 109 118
e 109 132
e 109 134
e 109 147
e 109 154
e 109 160
e 109 171
e 109 174
e 109 176
e 109 187
e 109 196
e 110 127
e 110 132
e 110 133
e 110 145
e 110 157
e 110 173
e 110 175
e 110 183
e 111 114
e 111 115
e 111 121
e 111 131
e 111 146
e 111 160
e 111 165
e 111 172
e 111 176
e 111 177
e 111 186
e 112 115
e 112 116
e 112 118
e 112 119
e 112 124
e 112 153
e 112 158
e 112 178
e 112 188
e 112 193
e 112 198
e 113 120
e 113 122
e 113 123
e 113 149
e 113 155
e 113 159
e 113 179
e 113 182
e 113 188
e 113 190
e 113 197
e 114 131
e 114 138
e 114 146
e 114 156
e 114 160
e 114 165
e 114 171
e 114 172
e 114 175
e 114 177
e 115 118
e 115 121
e 115 124
e 115 176
e 115 178
e 115 186
e 115 188
e 116 119
e 116 133
e 116 153
e 116 155
e 116 158
e 116 168
e 116 192
e 116 193
e 116 198
e 117 147
e 117 149
e 117 150
e 117 152
e 117 157
e 117 169
e 117 170
e 117 178
e 117 181
e 117 185
e 118 124
e 118 132
e 118 147
e 118 154
e 118 160
e 118 178
e 118 187
e 118 188
e 119 151
e 119 153
e 119 158
e 119 193
e 119 198
e 120 123
e 120 135
e 120 159
e 120 169
e 120 172
e 120 197
e 121 156
e 121 166
e 121 176
e 121 186
e 121 191
e 121 195
e 122 149
e 122 155
e 122 164
e 122 179
e 122 180
e 122 182
e 122 187
e 122 188
e 122 189
e 122 190
e 122 198
e 123 159
e 123 163
e 123 197
e 124 125
e 124 134
e 124 159
e 124 162
e 124 168
e 124 178
e 124 180
e 124 184
e 124 188
e 125 129
e 125 134
e 125 137
e 125 159
e 125 162
e 125 168
e 125 180
e 125 183
e 125 184
e 126 130
e 126 136
e 126 154
e 126 161
e 126 162
e 126 164
e 126 182
e 126 192
e 126 193
e 126 194
e 126 196
e 127 129
e 127 132
e 127 141
e 127 143
e 127 145
e 127 175
e 127 194
e 128 136
e 128 142
e 128 148
e 128 150
e 128 151
e 128 158
e 128 166
e 128 186
e 128 190
e 129 137
e 129 141
e 129 143
e 129 183
e 129 194
e 130 135
e 130 144
e 130 161
e 130 164
e 130 192
e 130 196
e 131 144
e 131 146
e 131 160
e 131 165
e 131 172
e 131 177
e 131 189
e 132 145
e 132 147
e 132 154
e 132 160
e 132 175
e 132 187
e 133 155
e 133 157
e 133 168
e 133 173
e 133 183
e 133 192
e 134 159
e 134 162
e 134 168
e 134 171
e 134 174
e 134 176
e 134 180
e 134 184
e 134 196
e 135 144
e 135 169
e 135 172
e 136 148
e 136 150
e 136 151
e 136 154
e 136 162
e 136 166
e 136 182
e 136 193
e 136 194
e 137 140
e 137 152
e 137 183
e 138 143
e 138 153
e 138 156
e 138 167
e 138 171
e 138 175
e 138 179
e 139 140
e 139 145
e 139 148
e 139 161
e 139 165
e 139 167
e 139 174
e 139 185
e 139 191
e 140 148
e 140 152
e 140 161
e 141 143
e 141 163
e 141 170
e 141 173
e 141 184
e 141 194
e 142 158
e 142 177
e 142 186
e 142 190
e 142 197
e 143 153
e 143 167
e 143 179
e 143 194
e 144 189
e 145 165
e 145 167
e 145 174
e 145 175
e 145 185
e 145 191
e 146 160
e 146 165
e 146 172
e 146 177
e 146 195
e 147 149
e 147 150
e 147 152
e 147 154
e 147 157
e 147 160
e 147 169
e 147 185
e 147 187
e 148 150
e 148 151
e 148 161
e 148 166
e 149 150
e 149 152
e 149 155
e 149 157
e 149 169
e 149 179
e 149 182
e 149 185
e 149 188
e 149 190
e 150 151
e 150 152
e 150 157
e 150 166
e 150 169
e 150 185
e 151 166
e 152 157
e 152 169
e 152 185
e 153 158
e 153 167
e 153 179
e 153 193
e 153 198
e 154 160
e 154 162
e 154 182
e 154 187
e 154 193
e 154 194
e 155 168
e 155 179
e 155 182
e 155 188
e 155 190
e 155 192
e 156 166
e 156 171
e 156 175
e 156 191
e 156 195
e 157 169
e 157 173
e 157 183
e 157 185
e 158 186
e 158 190
e 158 193
e 158 198
e 159 162
e 159 168
e 159 180
e 159 184
e 159 197
e 160 165
e 160 172
e 160 177
e 160 187
e 161 164
e 161 192
e 161 196
e 162 168
e 162 180
e 162 182
e 162 184
e 162 193
e 162 194
e 163 170
e 163 173
e 163 184
e 164 180
e 164 187
e 164 189
e 164 192
e 164 196
e 164 198
e 165 167
e 165 172
e 165 174
e 165 177
e 165 185
e 165 191
e 166 191
e 166 195
e 167 174
e 167 179
e 167 185
e 167 191
e 168 180
e 168 184
e 168 192
e 169 172
e 169 185
e 170 173
e 170 178
e 170 181
e 170 184
e 171 174
e 171 175
e 171 176
e 171 196
e 172 177
e 173 183
e 173 184
e 174 176
e 174 185
e 174 191
e 174 196
e 176 186
e 176 196
e 177 197
e 178 181
e 178 188
e 179 182
e 179 188
e 179 190
e 180 184
e 180 187
e 180 189
e 180 198
e 182 188
e 182 190
e 182 193
e 182 194
e 185 191
e 186 190
e 187 189
e 187 198
e 188 190
e 189 198
e 191 195
e 192 196
e 193 194
e 193 198
